(declare-const term_to_project_onto3 Real)
(declare-const term_to_project_onto Real)
(declare-const term_to_project_onto4 Real)
(declare-const term_to_project_onto5 Real)
(declare-const term_to_project_onto6 Real)
(declare-const i Int)
(declare-const term_to_project_onto1 Real)
(declare-const term_to_project_onto7 Real)
(declare-const term_to_project_onto0 Real)
(declare-const term_to_project_onto2 Real)
(declare-const key Int)
(assert (exists
         ((|key'?1| Int) (|j'?2| Int) (tr?3 Int) (tr?4 Int) (|mem_14'?5| Int)
            (|mem_15'?6| Int) (|mem_14@pos'?7| Int) (|mem_15@pos'?8| Int)
            (|mem_14@width'?9| Int) (|mem_15@width'?10| Int) (|i'?11| Int)
            (K?12 Int) (|mem_15@width'?13| Int) (|mem_14@width'?14| Int)
            (|mem_15@pos'?15| Int) (|mem_14@pos'?16| Int) (|mem_15'?17| Int)
            (|mem_14'?18| Int) (|i'?19| Int) (mem_14?20 Int) (mem_15?21 Int)
            (mem_14@pos?22 Int) (mem_15@pos?23 Int) (mem_14@width?24 Int)
            (mem_15@width?25 Int) (v@pos?26 Int) (v@width?27 Int) (j?28 Int)
            (SIZE?29 Int))
         (and (= v@pos?26 0) (<= (- v@width?27) 0) (<= (+ (- j?28) 1) 0)
                (<= (- SIZE?29) 0) (= v@pos?26 0)
                (<= (+ (- SIZE?29) j?28 1) 0)
                (= (+ (- |i'?11|) (- K?12) j?28 -1) 0)
                (or (and (= K?12 0)
                           (= (+ (- |mem_15@width'?10|) mem_15@width?25) 0)
                           (= (+ (- |mem_14@width'?9|) mem_14@width?24) 0)
                           (= (+ (- |mem_15@pos'?8|) mem_15@pos?23) 0)
                           (= (+ (- |mem_14@pos'?7|) mem_14@pos?22) 0)
                           (= (+ (- |mem_15'?6|) mem_15?21) 0)
                           (= (+ (- |mem_14'?5|) mem_14?20) 0)
                           (= (+ (- |i'?11|) j?28 -1) 0))
                      (and (<= (+ (- K?12) 1) 0) (= v@pos?26 0)
                             (<= (+ (- j?28) 1) 0) (<= (- v@width?27) 0)
                             (= v@pos?26 0) (<= (+ (- |i'?11|) -1) 0)
                             (<= (- v@width?27) 0))) (<= (- K?12) 0)
                (= v@pos?26 0) (<= (- v@width?27) 0) (= v@pos?26 0)
                (or (<= (+ |i'?11| 1) 0)
                      (and (<= (- |i'?11|) 0) (<= (+ (- tr?4) tr?3) 0)))
                (= (+ |mem_15@width'?13| (- |mem_15@width'?10|)) 0)
                (= (+ |mem_14@width'?14| (- |mem_14@width'?9|)) 0)
                (= (+ |mem_15@pos'?15| (- |mem_15@pos'?8|)) 0)
                (= (+ |mem_14@pos'?16| (- |mem_14@pos'?7|)) 0)
                (= (+ |mem_15'?17| (- |mem_15'?6|)) 0)
                (= (+ |mem_14'?18| (- |mem_14'?5|)) 0)
                (= (+ |key'?1| (- tr?4)) 0) (= (+ |j'?2| (- j?28) -1) 0)
                (= (+ |i'?19| (- |i'?11|)) 0)
                (= term_to_project_onto7 (+ |i'?19| (- i)))
                (= term_to_project_onto6 (+ |j'?2| (- j?28)))
                (= term_to_project_onto5 (+ |key'?1| (- key)))
                (= term_to_project_onto4 (+ |mem_14'?18| (- mem_14?20)))
                (= term_to_project_onto3 (+ |mem_15'?17| (- mem_15?21)))
                (= term_to_project_onto2 (+ |mem_14@pos'?16|
                                              (- mem_14@pos?22)))
                (= term_to_project_onto1 (+ |mem_15@pos'?15|
                                              (- mem_15@pos?23)))
                (= term_to_project_onto0 (+ |mem_14@width'?14|
                                              (- mem_14@width?24)))
                (= term_to_project_onto (+ |mem_15@width'?13|
                                             (- mem_15@width?25))))))
(check-sat)
